# Node Net
 33   1
3871   1
4680   1
 40   2
3421   2
 20   2
8074   3
2071   3
2881   3
 67   4
8031   4
5671   4
8048   5
3151   5
4590   5
8089   6
3060   6
1890   6
5940   7
 46   7
 59   7
  7   8
1351   8
5311   8
 30   9
  4   9
7111   9
8079  10
8019  10
630  10
4231  11
8018  11
8060  11
6930  12
8032  12
5490  13
4230  13
7921  14
5221  14
8092  15
6030  15
 91  16
  2  16
8030  17
8061  17
 84  18
8088  18
1621  19
 86  19
1081  20
811  20
1440  21
8091  21
